(define-fun e0 () (_ BitVec 1) (_ bv0 1))
(declare-fun c1 () (_ BitVec 1))
(define-fun e2 () Bool (= e0 c1))
(define-fun e3 () (_ BitVec 48) (_ bv0 48))
(declare-fun c4 () (_ BitVec 48))
(define-fun e5 () Bool (= e3 c4))
(declare-fun c6 () (_ BitVec 48))
(define-fun e7 () Bool (= e3 c6))
(declare-fun c8 () (_ BitVec 48))
(define-fun e9 () Bool (= e3 c8))
(declare-fun c10 () (_ BitVec 48))
(define-fun e11 () Bool (= e3 c10))
(define-fun e12 () Bool (and e9 e11))
(define-fun e13 () Bool (and e7 e12))
(define-fun e14 () Bool (and e5 e13))
(define-fun e15 () Bool (and e2 e14))
(assert e15)
(define-fun e16 () (_ BitVec 16) (_ bv0 16))
(declare-fun c17 () (_ BitVec 16))
(declare-fun c18 () (_ BitVec 16))
(define-fun e19 () (_ BitVec 16) (bvmul c17 c18))
(define-fun e20 () Bool (= e16 e19))
(define-fun e21 () Bool (not e20))
(assert e21)
(check-sat)
(get-model)
